g3 3 1 0	# problem tmp
 86 68 1 0 32	# vars, constraints, objectives, ranges, eqns
 36 1 0 32	# nonlinear constrs, objs; ccons: lin, nonlin
 0 0	# network constraints: nonlinear, linear
 18 18 18	# nonlinear vars in constraints, objectives, both
 0 0 0 1	# linear network variables; functions; arith, flags
 0 0 0 0 0	# discrete variables: binary, integer, nonlinear (b,c,o)
 254 18	# nonzeros in Jacobian, gradients
 0 0	# max name lengths: constraints, variables
 0 0 0 0 0	# common exprs: b,c,o,c1,o1
C0
o0
o2
n0.75
o5
o3
v0
n12
n4
n5
C1
o0
o2
n0.75
o5
o3
v0
n12
n4
n5
C2
o0
o2
n0.8999999999999999
o5
o3
v1
n18
n4
n6
C3
o0
o2
n0.8999999999999999
o5
o3
v1
n18
n4
n6
C4
o0
o2
n0.44999999999999996
o5
o3
v2
n35
n4
n3
C5
o0
o2
n0.44999999999999996
o5
o3
v2
n35
n4
n3
C6
o0
o2
n1.3499999999999999
o5
o3
v3
n35
n4
n9
C7
o0
o2
n1.3499999999999999
o5
o3
v3
n35
n4
n9
C8
o0
o2
n1.3499999999999999
o5
o3
v4
n20
n4
n9
C9
o0
o2
n1.3499999999999999
o5
o3
v4
n20
n4
n9
C10
o0
o2
n0.6
o5
o3
v5
n11
n4
n4
C11
o0
o2
n0.6
o5
o3
v5
n11
n4
n4
C12
o0
o2
n0.3
o5
o3
v6
n11
n4
n2
C13
o0
o2
n0.3
o5
o3
v6
n11
n4
n2
C14
o0
o2
n1.2
o5
o3
v7
n26
n4
n8
C15
o0
o2
n1.2
o5
o3
v7
n26
n4
n8
C16
o0
o2
n0.8999999999999999
o5
o3
v8
n33
n4
n6
C17
o0
o2
n0.8999999999999999
o5
o3
v8
n33
n4
n6
C18
o0
o2
n1.05
o5
o3
v9
n32
n4
n7
C19
o0
o2
n1.05
o5
o3
v9
n32
n4
n7
C20
o0
o2
n0.6
o5
o3
v10
n26
n4
n4
C21
o0
o2
n0.6
o5
o3
v10
n26
n4
n4
C22
o0
o2
n1.2
o5
o3
v11
n30
n4
n8
C23
o0
o2
n1.2
o5
o3
v11
n30
n4
n8
C24
o0
o2
n0.3
o5
o3
v12
n19
n4
n2
C25
o0
o2
n0.3
o5
o3
v12
n19
n4
n2
C26
o0
o2
n0.6
o5
o3
v13
n36
n4
n4
C27
o0
o2
n0.6
o5
o3
v13
n36
n4
n4
C28
o0
o2
n0.44999999999999996
o5
o3
v14
n25
n4
n3
C29
o2
n-0.44999999999999996
o5
o3
v14
n25
n4
C30
o2
n-0.8999999999999999
o5
o3
v15
n24
n4
C31
o0
o2
n0.8999999999999999
o5
o3
v15
n24
n4
n6
C32
o0
o2
n1.2
o5
o3
v16
n39
n4
n8
C33
o2
n-1.2
o5
o3
v16
n39
n4
C34
o2
n-0.8999999999999999
o5
o3
v17
n43
n4
C35
o0
o2
n0.8999999999999999
o5
o3
v17
n43
n4
n6
C36
n0
C37
n0
C38
n0
C39
n0
C40
n0
C41
n0
C42
n0
C43
n0
C44
n0
C45
n0
C46
n0
C47
n0
C48
n0
C49
n0
C50
n0
C51
n0
C52
n0
C53
n0
C54
n0
C55
n0
C56
n0
C57
n0
C58
n0
C59
n0
C60
n0
C61
n0
C62
n0
C63
n0
C64
n0
C65
n0
C66
n0
C67
n0
O0 0
o54
19
o2
n0.75
o5
o3
v0
n12
n4
o2
n0.8999999999999999
o5
o3
v1
n18
n4
o2
n0.44999999999999996
o5
o3
v2
n35
n4
o2
n1.3499999999999999
o5
o3
v3
n35
n4
o2
n1.3499999999999999
o5
o3
v4
n20
n4
o2
n0.6
o5
o3
v5
n11
n4
o2
n0.3
o5
o3
v6
n11
n4
o2
n1.2
o5
o3
v7
n26
n4
o2
n0.8999999999999999
o5
o3
v8
n33
n4
o2
n1.05
o5
o3
v9
n32
n4
o2
n0.6
o5
o3
v10
n26
n4
o2
n1.2
o5
o3
v11
n30
n4
o2
n0.3
o5
o3
v12
n19
n4
o2
n0.6
o5
o3
v13
n36
n4
o2
n0.44999999999999996
o5
o3
v14
n25
n4
o2
n0.8999999999999999
o5
o3
v15
n24
n4
o2
n1.2
o5
o3
v16
n39
n4
o2
n0.8999999999999999
o5
o3
v17
n43
n4
n100
x72
0 12
1 18
2 35
3 35
4 20
5 11
6 11
7 26
8 33
9 32
10 26
11 30
12 19
13 36
14 25
15 24
16 39
17 43
18 0.001
19 0.001
20 0.001
21 0.001
22 0.001
23 0.001
24 0.001
25 0.001
26 0.001
27 0.001
28 0.001
29 0.001
30 0.001
31 0.001
32 0.001
33 0.001
34 0.001
35 0.001
36 0.001
37 0.001
38 0.001
39 0.001
40 0.001
41 0.001
42 0.001
43 0.001
44 0.001
45 0.001
46 0.001
47 0.001
48 0.001
49 0.001
50 1
51 1
52 1
53 1
54 1
55 1
56 1
57 1
58 1
59 1
60 1
61 1
62 1
63 1
64 1
65 1
66 1
67 1
80 3
81 6
82 8
83 6
r
5 1 19
5 1 20
5 1 21
5 1 22
5 1 23
5 1 24
5 1 25
5 1 26
5 1 27
5 1 28
5 1 29
5 1 30
5 1 31
5 1 32
5 1 33
5 1 34
5 1 35
5 1 36
5 1 37
5 1 38
5 1 39
5 1 40
5 1 41
5 1 42
5 1 43
5 1 44
5 1 45
5 1 46
5 1 47
1 3
1 6
5 1 48
5 1 49
1 8
1 6
5 1 50
4 10
4 20
4 30
4 40
4 0
4 0
4 0
4 0
4 0
4 0
4 0
4 0
4 0
4 0
4 0
4 0
4 0
4 0
4 0
4 0
4 0
4 0
4 0
4 0
4 0
4 0
4 0
4 0
4 0
4 0
4 0
4 0
b
3
3
3
3
3
3
3
3
3
3
3
3
3
3
3
3
3
3
2 0
2 0
2 0
2 0
2 0
2 0
2 0
2 0
2 0
2 0
2 0
2 0
2 0
2 0
2 0
2 0
2 0
2 0
2 0
2 0
2 0
2 0
2 0
2 0
2 0
2 0
2 0
2 0
2 0
2 0
2 0
2 0
2 0
2 0
2 0
2 0
2 0
2 0
2 0
2 0
2 0
2 0
2 0
2 0
2 0
2 0
2 0
2 0
2 0
2 0
2 0
2 0
2 0
2 0
2 0
2 0
2 0
2 0
2 0
2 0
2 0
2 0
2 0
2 0
2 0
2 0
2 0
2 0
k85
3
6
9
12
15
18
21
24
27
30
33
36
39
42
45
48
51
54
57
60
63
66
69
72
75
78
81
84
87
90
93
96
99
102
105
108
111
114
117
120
123
126
129
132
135
138
140
142
144
146
148
150
152
154
156
158
160
162
164
166
168
170
172
174
176
178
180
182
184
186
188
190
192
194
196
198
204
210
216
222
228
234
240
246
250
J0 4
0 0
50 100
68 -1
76 1
J1 4
0 0
50 100
69 -1
77 1
J2 4
1 0
51 100
68 -1
78 1
J3 4
1 0
51 100
69 -1
79 1
J4 4
2 0
52 100
70 -1
76 1
J5 4
2 0
52 100
71 -1
77 1
J6 4
3 0
53 100
70 -1
78 1
J7 4
3 0
53 100
71 -1
79 1
J8 4
4 0
54 100
76 -1
78 1
J9 4
4 0
54 100
77 -1
79 1
J10 4
5 0
55 100
76 1
78 -1
J11 4
5 0
55 100
77 1
79 -1
J12 4
6 0
56 100
76 -1
80 1
J13 4
6 0
56 100
77 -1
81 1
J14 4
7 0
57 100
76 -1
84 1
J15 4
7 0
57 100
77 -1
85 1
J16 4
8 0
58 100
78 -1
82 1
J17 4
8 0
58 100
79 -1
83 1
J18 4
9 0
59 100
78 -1
84 1
J19 4
9 0
59 100
79 -1
85 1
J20 4
10 0
60 100
80 1
84 -1
J21 4
10 0
60 100
81 1
85 -1
J22 4
11 0
61 100
82 1
84 -1
J23 4
11 0
61 100
83 1
85 -1
J24 4
12 0
62 100
80 -1
82 1
J25 4
12 0
62 100
81 -1
83 1
J26 4
13 0
63 100
80 1
82 -1
J27 4
13 0
63 100
81 1
83 -1
J28 4
14 0
64 100
72 1
80 -1
J29 4
14 0
64 -100
73 -1
81 1
J30 4
15 0
65 -100
74 -1
80 1
J31 4
15 0
65 100
75 1
81 -1
J32 4
16 0
66 100
72 1
82 -1
J33 4
16 0
66 -100
73 -1
83 1
J34 4
17 0
67 -100
74 -1
82 1
J35 4
17 0
67 100
75 1
83 -1
J36 2
18 1
20 1
J37 2
19 1
21 1
J38 2
22 1
24 1
J39 2
23 1
25 1
J40 6
18 -1
22 -1
26 1
28 -1
30 1
32 1
J41 6
19 -1
23 -1
27 1
29 -1
31 1
33 1
J42 6
20 -1
24 -1
26 -1
28 1
34 1
36 1
J43 6
21 -1
25 -1
27 -1
29 1
35 1
37 1
J44 5
30 -1
38 -1
42 1
44 -1
46 1
J45 5
31 -1
39 -1
43 1
45 -1
47 1
J46 5
34 -1
40 -1
42 -1
44 1
48 1
J47 5
35 -1
41 -1
43 -1
45 1
49 1
J48 4
32 -1
36 -1
38 1
40 1
J49 4
33 -1
37 -1
39 1
41 1
J50 3
0 1
18 -1
19 -1
J51 3
1 1
20 -1
21 -1
J52 3
2 1
22 -1
23 -1
J53 3
3 1
24 -1
25 -1
J54 3
4 1
26 -1
27 -1
J55 3
5 1
28 -1
29 -1
J56 3
6 1
30 -1
31 -1
J57 3
7 1
32 -1
33 -1
J58 3
8 1
34 -1
35 -1
J59 3
9 1
36 -1
37 -1
J60 3
10 1
38 -1
39 -1
J61 3
11 1
40 -1
41 -1
J62 3
12 1
42 -1
43 -1
J63 3
13 1
44 -1
45 -1
J64 2
14 1
46 -1
J65 2
15 1
47 -1
J66 2
16 1
48 -1
J67 2
17 1
49 -1
G0 18
0 0
1 0
2 0
3 0
4 0
5 0
6 0
7 0
8 0
9 0
10 0
11 0
12 0
13 0
14 0
15 0
16 0
17 0
